Normalized Data/p04_29_normalized_split0.vrp
NAME:p04_29_NORMALIZED_split
BEST_KNOWN: 0
COMMENT: 0
DIMENSION: 621
CAPACITY: 100
EDGE_WEIGHT_FORMAT: FUNCTION
EDGE_WEIGHT_TYPE: EXACT_2D
NODE_COORD_SECTION
1 0.00000 0.00000
2 -44 -49
3 -44 -49
4 -44 -49
5 -44 -49
6 -44 -49
7 -16 30
8 -16 30
9 -16 30
10 -36 19
11 -36 19
12 -36 19
13 -28 -28
14 -19 -5
15 -19 -5
16 27 -28
17 27 -28
18 27 -28
19 27 -28
20 27 -28
21 27 -28
22 27 -28
23 -19 -20
24 -19 -20
25 -19 -20
26 -19 -20
27 -19 -20
28 41 -48
29 41 -48
30 41 -48
31 41 -48
32 41 -48
33 45 -13
34 45 -13
35 -11 -47
36 -11 -47
37 -11 -47
38 -11 -47
39 -11 -47
40 -11 -47
41 24 34
42 24 34
43 24 34
44 24 34
45 24 34
46 18 14
47 18 14
48 18 14
49 18 14
50 -16 36
51 -16 36
52 -16 36
53 -3 12
54 -3 12
55 -3 12
56 -3 12
57 -30 -40
58 -30 -40
59 -30 -40
60 -8 16
61 -8 16
62 -8 16
63 -8 16
64 -8 16
65 -27 -25
66 -27 -25
67 -27 -25
68 -27 -25
69 16 -45
70 16 -45
71 16 -45
72 0 17
73 13 35
74 13 35
75 13 35
76 13 35
77 15 3
78 15 3
79 15 3
80 0 -50
81 0 -50
82 0 -50
83 0 -50
84 0 -50
85 43 -20
86 43 -20
87 43 -20
88 43 -20
89 43 -20
90 -15 -13
91 -15 -13
92 -15 -13
93 -43 45
94 -43 45
95 -43 45
96 -43 45
97 -43 45
98 29 -40
99 29 -40
100 29 -40
101 29 -40
102 29 -40
103 29 -40
104 29 -40
105 26 14
106 26 14
107 26 14
108 26 14
109 26 14
110 26 14
111 -25 39
112 -25 39
113 -25 39
114 -25 39
115 -25 39
116 -25 39
117 -39 -21
118 -39 -21
119 -39 -21
120 -39 -21
121 -39 -21
122 -39 -21
123 -39 -21
124 -17 4
125 -17 4
126 -17 4
127 -17 4
128 -17 4
129 10 -45
130 10 -45
131 10 -45
132 40 -29
133 40 -29
134 40 -29
135 40 -29
136 40 -29
137 40 -29
138 43 12
139 43 12
140 43 12
141 -18 -18
142 -18 -18
143 -18 -18
144 27 44
145 27 44
146 28 -6
147 28 -6
148 19 29
149 19 29
150 19 29
151 19 29
152 19 29
153 19 29
154 34 1
155 34 1
156 34 1
157 34 1
158 34 1
159 45 -43
160 45 -43
161 -12 -40
162 -12 -40
163 -12 -40
164 -12 -40
165 -12 -40
166 22 41
167 22 41
168 22 41
169 -7 20
170 -7 20
171 -7 20
172 -7 20
173 -7 20
174 -7 20
175 -9 41
176 -9 41
177 -9 41
178 -9 41
179 -21 -8
180 -21 -8
181 -21 -8
182 -21 -8
183 -30 37
184 -30 37
185 -30 37
186 32 -41
187 32 -41
188 32 -41
189 32 -41
190 -1 -21
191 -1 -21
192 -1 -21
193 -1 -21
194 4 11
195 4 11
196 4 11
197 36 -8
198 36 -8
199 36 -8
200 41 -25
201 41 -25
202 11 -17
203 11 -17
204 11 -17
205 11 -17
206 -3 -29
207 -3 -29
208 -3 -29
209 12 -49
210 12 -49
211 12 -49
212 12 -49
213 12 -49
214 7 -48
215 7 -48
216 7 -48
217 7 -48
218 -37 -39
219 -37 -39
220 -37 -39
221 -37 -39
222 -37 -39
223 -37 -39
224 11 25
225 11 25
226 11 25
227 11 25
228 11 25
229 42 36
230 42 36
231 42 36
232 42 36
233 18 -4
234 18 -4
235 18 -4
236 18 -4
237 18 -4
238 -46 8
239 -46 8
240 -46 8
241 -46 8
242 -46 8
243 -46 8
244 3 0
245 3 0
246 3 0
247 3 0
248 3 0
249 -48 -3
250 -48 -3
251 -48 -3
252 -48 -3
253 -48 -3
254 -48 -3
255 44 -30
256 44 -30
257 44 -30
258 44 -30
259 44 -30
260 44 -30
261 -48 -17
262 -48 -17
263 -10 -23
264 -10 -23
265 -10 -23
266 16 39
267 16 39
268 16 39
269 16 39
270 16 39
271 -47 12
272 -47 12
273 -47 12
274 -47 12
275 -47 12
276 -47 12
277 -41 28
278 -41 28
279 -41 28
280 -41 28
281 -41 28
282 -37 47
283 -37 47
284 -37 47
285 -37 47
286 -32 12
287 -32 12
288 -32 12
289 -32 12
290 43 -30
291 43 -30
292 43 -30
293 43 -30
294 43 -30
295 44 6
296 44 6
297 -11 -11
298 -11 -11
299 -11 -11
300 -34 37
301 -48 22
302 -48 22
303 -48 22
304 -50 -32
305 -50 -32
306 -50 -32
307 -50 -32
308 -50 -32
309 -50 -32
310 -42 27
311 -42 27
312 -42 27
313 26 -37
314 26 -37
315 26 -37
316 27 43
317 27 43
318 27 43
319 27 43
320 27 43
321 2 40
322 2 40
323 2 40
324 2 40
325 30 -38
326 30 -38
327 30 -38
328 30 -38
329 30 -38
330 30 -38
331 37 27
332 37 27
333 37 27
334 37 27
335 37 27
336 37 27
337 -24 47
338 -24 47
339 45 21
340 45 21
341 45 21
342 45 21
343 45 21
344 45 21
345 45 21
346 15 19
347 15 19
348 15 19
349 15 19
350 15 19
351 -9 -20
352 -9 -20
353 -9 -20
354 -9 -20
355 -9 -20
356 -9 -20
357 -21 42
358 -21 42
359 -21 42
360 -21 42
361 -21 42
362 -21 42
363 -22 -21
364 -22 -21
365 -22 -21
366 -22 -21
367 -22 -21
368 -19 6
369 -19 6
370 -15 36
371 -15 36
372 -15 36
373 -2 -1
374 -2 -1
375 -2 -1
376 -2 -1
377 -2 -1
378 -2 -1
379 -2 -1
380 41 11
381 41 11
382 41 11
383 41 11
384 46 32
385 46 32
386 46 32
387 46 32
388 -24 36
389 -24 36
390 -24 36
391 13 44
392 13 44
393 13 44
394 13 44
395 13 44
396 13 44
397 27 9
398 27 9
399 2 18
400 2 18
401 2 18
402 2 18
403 39 35
404 39 35
405 39 35
406 -9 -42
407 -9 -42
408 -9 -42
409 -47 14
410 -47 14
411 -47 14
412 -47 14
413 -4 26
414 -4 26
415 -4 26
416 -4 26
417 -12 3
418 -12 3
419 -12 3
420 -12 3
421 16 -16
422 16 -16
423 16 -16
424 -11 43
425 -11 43
426 -11 43
427 -11 43
428 -11 43
429 -11 43
430 43 -16
431 43 -16
432 43 -16
433 43 -16
434 16 10
435 16 10
436 16 10
437 16 10
438 27 21
439 27 21
440 -11 43
441 -11 43
442 -11 43
443 -10 -20
444 -10 -20
445 -10 -20
446 -10 -20
447 -15 8
448 -15 8
449 -15 8
450 -15 8
451 -15 8
452 -15 8
453 -39 -26
454 -39 -26
455 -39 -26
456 -39 -26
457 -39 -26
458 46 15
459 46 15
460 46 15
461 46 15
462 27 -11
463 27 -11
464 27 -11
465 27 -11
466 -34 -29
467 -34 -29
468 -34 -29
469 -34 -29
470 -34 -29
471 50 39
472 50 39
473 50 39
474 50 39
475 -45 41
476 -45 41
477 -45 41
478 -45 41
479 -45 41
480 -45 41
481 -45 41
482 -43 -43
483 -43 -43
484 -43 -43
485 -43 -43
486 -43 -20
487 -43 -20
488 -43 -20
489 -43 -20
490 -45 -3
491 -45 -3
492 -45 -3
493 3 -28
494 3 -28
495 -50 -3
496 -50 -3
497 -40 -30
498 -40 -30
499 -40 -30
500 -7 5
501 -7 5
502 -7 5
503 -7 5
504 -33 -20
505 -33 -20
506 -33 -20
507 -33 -20
508 22 37
509 22 37
510 -18 21
511 -18 21
512 -18 21
513 34 -27
514 34 -27
515 34 -27
516 34 -27
517 34 -27
518 34 -27
519 4 -49
520 4 -49
521 4 -49
522 4 -49
523 -15 -4
524 -15 -4
525 -15 -4
526 -15 -4
527 -20 -48
528 -20 -48
529 -20 -48
530 -20 -48
531 -20 -48
532 -20 -48
533 -20 -48
534 -27 -23
535 -27 -23
536 -27 -23
537 -27 -23
538 4 41
539 4 41
540 -1 47
541 -1 47
542 -1 47
543 -1 47
544 -1 47
545 -1 47
546 1 28
547 1 28
548 1 28
549 1 28
550 1 28
551 29 -28
552 29 -28
553 29 -28
554 29 -28
555 29 -28
556 29 -28
557 -24 1
558 -24 1
559 -41 4
560 -41 4
561 -41 4
562 -41 4
563 -41 4
564 -41 4
565 48 23
566 48 23
567 48 23
568 48 23
569 21 -14
570 21 -14
571 21 -14
572 21 -14
573 10 -6
574 10 -6
575 10 -6
576 10 -6
577 10 -6
578 4 -3
579 4 -3
580 4 -3
581 -28 35
582 -28 35
583 -28 35
584 -3 -5
585 -3 -5
586 -3 -5
587 -3 -5
588 -3 -5
589 37 11
590 37 11
591 37 11
592 37 11
593 -11 -45
594 -11 -45
595 -11 -45
596 -11 -45
597 -43 49
598 -43 49
599 -43 49
600 -43 49
601 38 10
602 38 10
603 6 -49
604 6 -49
605 6 -49
606 20 -25
607 20 -25
608 20 -25
609 20 -25
610 20 -25
611 20 -25
612 -3 -34
613 -3 -34
614 -3 -34
615 -3 -34
616 7 -40
617 7 -40
618 7 -40
619 7 -40
620 7 -40
621 7 -40
DEMAND_SECTION
1 0
2 20
3 10
4 5
5 1
6 1
7 20
8 5
9 1
10 10
11 5
12 1
13 20
14 20
15 10
16 20
17 10
18 5
19 1
20 1
21 1
22 1
23 20
24 20
25 5
26 1
27 1
28 20
29 20
30 1
31 1
32 1
33 20
34 5
35 20
36 10
37 1
38 1
39 1
40 1
41 20
42 20
43 5
44 1
45 1
46 20
47 20
48 5
49 1
50 20
51 10
52 5
53 20
54 10
55 5
56 1
57 20
58 10
59 1
60 20
61 10
62 1
63 1
64 1
65 10
66 1
67 1
68 1
69 20
70 20
71 5
72 20
73 20
74 20
75 1
76 1
77 20
78 5
79 1
80 10
81 1
82 1
83 1
84 1
85 10
86 5
87 1
88 1
89 1
90 20
91 20
92 1
93 20
94 10
95 1
96 1
97 1
98 20
99 10
100 5
101 1
102 1
103 1
104 1
105 20
106 20
107 5
108 1
109 1
110 1
111 20
112 20
113 5
114 1
115 1
116 1
117 20
118 20
119 5
120 1
121 1
122 1
123 1
124 20
125 10
126 5
127 1
128 1
129 20
130 20
131 1
132 20
133 20
134 5
135 1
136 1
137 1
138 20
139 20
140 1
141 10
142 1
143 1
144 20
145 5
146 10
147 5
148 20
149 10
150 5
151 1
152 1
153 1
154 20
155 20
156 1
157 1
158 1
159 20
160 10
161 20
162 20
163 5
164 1
165 1
166 20
167 10
168 1
169 20
170 20
171 5
172 1
173 1
174 1
175 10
176 1
177 1
178 1
179 20
180 10
181 5
182 1
183 20
184 20
185 5
186 20
187 20
188 5
189 1
190 20
191 20
192 5
193 1
194 20
195 20
196 1
197 20
198 20
199 5
200 20
201 5
202 20
203 20
204 5
205 1
206 20
207 20
208 1
209 20
210 10
211 5
212 1
213 1
214 20
215 20
216 5
217 1
218 20
219 10
220 5
221 1
222 1
223 1
224 20
225 20
226 1
227 1
228 1
229 10
230 5
231 1
232 1
233 20
234 20
235 1
236 1
237 1
238 20
239 20
240 1
241 1
242 1
243 1
244 20
245 20
246 1
247 1
248 1
249 20
250 10
251 1
252 1
253 1
254 1
255 20
256 10
257 1
258 1
259 1
260 1
261 20
262 1
263 20
264 10
265 5
266 20
267 10
268 5
269 1
270 1
271 20
272 10
273 5
274 1
275 1
276 1
277 20
278 10
279 1
280 1
281 1
282 20
283 20
284 5
285 1
286 20
287 10
288 5
289 1
290 20
291 1
292 1
293 1
294 1
295 20
296 5
297 20
298 5
299 1
300 20
301 20
302 20
303 10
304 20
305 5
306 1
307 1
308 1
309 1
310 20
311 20
312 1
313 10
314 5
315 1
316 20
317 5
318 1
319 1
320 1
321 20
322 10
323 1
324 1
325 20
326 5
327 1
328 1
329 1
330 1
331 10
332 5
333 1
334 1
335 1
336 1
337 20
338 10
339 20
340 10
341 5
342 1
343 1
344 1
345 1
346 10
347 5
348 1
349 1
350 1
351 20
352 10
353 1
354 1
355 1
356 1
357 20
358 10
359 5
360 1
361 1
362 1
363 20
364 10
365 5
366 1
367 1
368 10
369 5
370 10
371 5
372 1
373 20
374 10
375 5
376 1
377 1
378 1
379 1
380 20
381 10
382 5
383 1
384 20
385 10
386 5
387 1
388 10
389 5
390 1
391 20
392 20
393 1
394 1
395 1
396 1
397 20
398 5
399 20
400 1
401 1
402 1
403 20
404 5
405 1
406 20
407 20
408 5
409 20
410 10
411 5
412 1
413 20
414 5
415 1
416 1
417 20
418 5
419 1
420 1
421 20
422 1
423 1
424 20
425 10
426 1
427 1
428 1
429 1
430 20
431 10
432 5
433 1
434 10
435 5
436 1
437 1
438 20
439 10
440 20
441 10
442 5
443 20
444 10
445 1
446 1
447 20
448 20
449 5
450 1
451 1
452 1
453 20
454 5
455 1
456 1
457 1
458 20
459 20
460 5
461 1
462 20
463 1
464 1
465 1
466 20
467 1
468 1
469 1
470 1
471 20
472 20
473 1
474 1
475 20
476 20
477 5
478 1
479 1
480 1
481 1
482 10
483 5
484 1
485 1
486 20
487 20
488 1
489 1
490 20
491 5
492 1
493 20
494 1
495 20
496 10
497 20
498 10
499 1
500 20
501 20
502 1
503 1
504 20
505 10
506 5
507 1
508 10
509 5
510 20
511 1
512 1
513 20
514 20
515 5
516 1
517 1
518 1
519 20
520 10
521 5
522 1
523 20
524 10
525 5
526 1
527 20
528 10
529 5
530 1
531 1
532 1
533 1
534 10
535 1
536 1
537 1
538 20
539 20
540 20
541 10
542 1
543 1
544 1
545 1
546 20
547 10
548 5
549 1
550 1
551 20
552 5
553 1
554 1
555 1
556 1
557 20
558 1
559 20
560 20
561 5
562 1
563 1
564 1
565 10
566 5
567 1
568 1
569 10
570 5
571 1
572 1
573 20
574 20
575 5
576 1
577 1
578 20
579 20
580 5
581 20
582 5
583 1
584 10
585 1
586 1
587 1
588 1
589 20
590 20
591 1
592 1
593 10
594 1
595 1
596 1
597 20
598 5
599 1
600 1
601 20
602 5
603 20
604 20
605 1
606 20
607 5
608 1
609 1
610 1
611 1
612 20
613 10
614 1
615 1
616 20
617 10
618 1
619 1
620 1
621 1
DEPOT_SECTION
1
-1
EOF