Normalized Data/p04_29_normalized_split0.sol
620 -14 495 494 250 252 249 253 251 248 489 490 491 -26 24 22 23 25 140 141 142 91 89 90 -33 32 429 432 431 430 87 84 86 88 85 461 -47 48 46 45 345 223 227 225 226 224 -52 172 169 171 170 168 173 59 63 60 -55 53 54 71 398 401 194 195 193 -56 58 57 219 220 221 222 218 217 497 498 496 -62 61 7 8 6 50 49 51 370 369 371 414 412 -74 72 267 266 268 269 265 165 167 166 507 -75 73 393 395 390 392 391 394 540 542 541 539 543 544 -76 78 77 232 235 236 234 233 573 574 -80 82 79 83 81 518 521 519 520 603 604 602 215 216 617 618 -94 95 598 596 597 599 281 283 284 282 182 184 -122 120 116 117 121 119 118 456 454 453 452 455 468 469 465 -126 127 125 368 367 286 285 287 288 562 559 561 558 -128 129 214 213 615 -145 146 198 197 196 153 154 -156 155 157 294 295 459 458 138 139 137 382 397 -163 162 594 595 592 593 35 36 38 34 37 39 530 528 526 529 532 527 531 584 587 585 586 -178 180 181 179 13 522 523 524 525 -190 189 192 191 -199 200 258 256 254 257 259 255 292 289 290 291 293 570 569 571 568 -203 201 204 202 420 572 575 576 -206 205 207 611 612 493 492 -243 245 -244 246 247 -261 260 488 485 486 487 503 506 504 505 -270 275 271 274 273 240 242 238 237 241 239 557 556 -276 279 278 280 277 311 310 309 10 9 11 451 450 448 -298 297 296 12 67 64 66 65 363 364 366 365 362 -299 93 96 92 476 480 474 475 477 479 478 -302 301 300 409 410 411 408 272 560 563 -306 304 303 308 305 307 3 1 2 4 5 484 483 482 481 466 467 535 533 536 534 -312 314 98 99 97 101 102 100 103 188 185 187 186 328 326 327 329 -313 69 70 68 212 210 209 208 211 130 620 616 619 -317 318 316 315 319 143 144 228 230 231 229 402 403 404 -325 324 27 30 28 31 29 158 159 421 422 -332 331 330 334 335 333 385 386 384 383 470 472 471 473 -338 343 341 340 344 342 339 566 567 564 565 460 457 590 591 396 -348 347 346 349 149 151 152 150 148 147 42 43 40 41 44 508 -354 350 352 351 263 264 262 442 445 444 443 -361 358 360 357 359 356 336 337 115 112 111 113 388 -372 375 -373 374 -377 376 378 -389 387 110 114 183 581 580 582 509 511 510 -399 400 538 537 323 320 321 322 547 545 548 -415 413 427 426 439 428 441 440 424 425 423 174 177 175 176 546 549 -416 418 417 419 124 123 447 449 446 -436 435 434 433 107 108 109 104 106 105 438 437 -464 463 462 131 136 135 133 132 134 517 514 512 513 516 515 -499 500 502 501 -550 551 552 554 553 555 19 17 16 18 15 20 21 608 605 609 610 607 606 -578 577 579 -583 353 355 164 160 161 407 405 406 614 613 -588 589 379 381 380 600 601 0 





OBJ=
4510.338
BEST_KNOWN=
0.000